
# File: PianificazioneProgetti.dat

set PROGETTI := 1 2 3 4 5 6 7;
set PERIODI := 1 2 3 4 5 6;

param FlussoCassa:
1 2 3 4 5 6 :=
1 -2 -1 0 2 3 1
2 -3 -3 -1 4 3 4
3 -1 -3 1 -2 3 4
4 0 -4 0 5 1 0
5 -4 1 3 2 1 1
6 -4 -1 4 0 1 1
7 -2 -1 4 -2 2 2;

param Budget := 1 8 2 6 3 3 4 1 5 0 6 0;
param TassoInteresse := 0.03;
